%chk=thischeckpointfile
#p b3lyp/sto-3g test Opt=ModRedundant Freq

Gaussian Test Job 629 (Part 2):
methane b3lyp/sto-3g

0 1
C
H 1 R
H 1 R 2 T
H 1 R 2 T 3 T 1
H 1 Rx 2 T 3 T -1

R 1.09
Rx 1.1
T 109.471221

1 5 1.2
